5384
5490
5468
5580
5418
5384
5482
5578
5394
5586
5508
5534
5660
5522
5368
5466
5458
5396
5520
5258
5444
5428
5400
5536
5440
5376
5462
5538
5394
5320
5408
5602
5582
5644
5374
5542
5428
5396
5398
5408
5434
5484
5452
5326
5358
5404
5556
5376
5426
5400
5520
5600
5352
5730
5488
5522
5420
5350
5448
